NAME: instance_1841
TYPE: TSP
DIMENSION: 20
EDGE_WEIGHT_TYPE: EUC_2D
NODE_COORD_SECTION
0 72.22 99.09
1 19.82 75.66
2 41.71 21.94
3 23.37 2.96
4 88.66 25.18
5 53.15 60.47
6 55.62 64.65
7 23.76 9.57
8 3.88 57.83
9 37.55 17.83
10 51.54 14.31
11 94.26 14.79
12 16.02 47.55
13 4.71 54.78
14 99.86 44.25
15 86.50 12.66
16 83.30 20.87
17 29.33 95.68
18 87.59 78.72
19 63.08 17.63
EOF
